573,193
681,286
826,301
994,507
1020,745
868,501
677,377
641,486
727,702
644,643
727,702
773,691
601,446
281,202
148,490
225,554
589,691
567,443
713,613
681,736
681,346
681,286
681,76
586,219
629,334
690,347
994,507
1166,563
390,617
570,748
225,554
411,406
